\ Model Organ_trader
\ LP format - for model browsing. Use MPS format to capture full model detail.
Minimize
  0 x[4,30,0] + 0 x[4,47,0] + 0 x[4,101,0] + 0 x[4,138,0] + 0 x[4,183,0]
   + 0 x[4,187,0] + 0 x[8,8,0] + 0 x[8,22,0] + 0 x[8,27,0] + 0 x[8,107,0]
   + 0 x[8,168,0] + 0 x[8,178,0] + 0 x[8,194,0] + 0 x[10,11,0]
   + 0 x[10,15,0] + 0 x[10,33,0] + 0 x[10,35,0] + 0 x[10,37,0]
   + 0 x[10,45,0] + 0 x[10,86,0] + 0 x[10,97,0] + 0 x[10,160,0]
   + 0 x[10,185,0] + 0 x[12,6,0] + 0 x[12,120,0] + 0 x[12,174,0]
   + 0 x[12,198,0] + 0 x[13,134,0] + 0 x[14,53,0] + 0 x[14,75,0]
   + 0 x[14,125,0] + 0 x[14,164,0] + 0 x[14,191,0] + 0 x[16,137,0]
   + 0 x[19,2,0] + 0 x[19,182,0] + 0 x[20,4,0] + 0 x[20,33,0]
   + 0 x[20,44,0] + 0 x[20,45,0] + 0 x[20,49,0] + 0 x[20,59,0]
   + 0 x[20,60,0] + 0 x[20,71,0] + 0 x[20,79,0] + 0 x[20,93,0]
   + 0 x[20,94,0] + 0 x[20,115,0] + 0 x[20,126,0] + 0 x[20,127,0]
   + 0 x[20,133,0] + 0 x[20,146,0] + 0 x[20,165,0] + 0 x[20,167,0]
   + 0 x[20,169,0] + 0 x[20,190,0] + 0 x[20,192,0] + 0 x[21,2,0]
   + 0 x[21,182,0] + 0 x[29,29,0] + 0 x[29,65,0] + 0 x[29,89,0]
   + 0 x[29,99,0] + 0 x[29,152,0] + 0 x[29,196,0] + 0 x[30,133,0]
   + 0 x[31,1,0] + 0 x[31,20,0] + 0 x[31,24,0] + 0 x[31,30,0]
   + 0 x[31,42,0] + 0 x[31,46,0] + 0 x[31,47,0] + 0 x[31,48,0]
   + 0 x[31,69,0] + 0 x[31,76,0] + 0 x[31,83,0] + 0 x[31,96,0]
   + 0 x[31,101,0] + 0 x[31,103,0] + 0 x[31,104,0] + 0 x[31,111,0]
   + 0 x[31,122,0] + 0 x[31,124,0] + 0 x[31,128,0] + 0 x[31,129,0]
   + 0 x[31,138,0] + 0 x[31,145,0] + 0 x[31,158,0] + 0 x[31,159,0]
   + 0 x[31,162,0] + 0 x[31,183,0] + 0 x[31,187,0] + 0 x[32,32,0]
   + 0 x[32,80,0] + 0 x[32,147,0] + 0 x[32,173,0] + 0 x[32,176,0]
   + 0 x[33,10,0] + 0 x[33,48,0] + 0 x[33,53,0] + 0 x[33,118,0]
   + 0 x[33,129,0] + 0 x[33,138,0] + 0 x[33,191,0] + 0 x[34,23,0]
   + 0 x[34,28,0] + 0 x[34,34,0] + 0 x[34,113,0] + 0 x[34,150,0]
   + 0 x[34,170,0] + 0 x[34,195,0] + 0 x[35,9,0] + 0 x[35,10,0]
   + 0 x[35,53,0] + 0 x[35,58,0] + 0 x[35,88,0] + 0 x[35,102,0]
   + 0 x[35,118,0] + 0 x[35,125,0] + 0 x[35,135,0] + 0 x[35,140,0]
   + 0 x[35,149,0] + 0 x[36,49,0] + 0 x[36,60,0] + 0 x[36,79,0]
   + 0 x[36,146,0] + 0 x[36,190,0] + 0 x[40,40,0] + 0 x[40,54,0]
   + 0 x[40,56,0] + 0 x[40,106,0] + 0 x[40,119,0] + 0 x[40,123,0]
   + 0 x[40,143,0] + 0 x[40,144,0] + 0 x[40,180,0] + 0 x[40,188,0]
   + 0 x[41,8,0] + 0 x[41,22,0] + 0 x[41,27,0] + 0 x[41,107,0]
   + 0 x[41,168,0] + 0 x[41,178,0] + 0 x[41,194,0] + 0 x[42,46,0]
   + 0 x[42,49,0] + 0 x[42,82,0] + 0 x[42,84,0] + 0 x[42,90,0]
   + 0 x[42,96,0] + 0 x[42,151,0] + 0 x[42,158,0] + 0 x[42,161,0]
   + 0 x[42,184,0] + 0 x[42,190,0] + 0 x[42,197,0] + 0 x[45,49,0]
   + 0 x[45,118,0] + 0 x[45,190,0] + 0 x[46,38,0] + 0 x[46,44,0]
   + 0 x[46,49,0] + 0 x[46,60,0] + 0 x[46,71,0] + 0 x[46,79,0]
   + 0 x[46,82,0] + 0 x[46,94,0] + 0 x[46,100,0] + 0 x[46,115,0]
   + 0 x[46,126,0] + 0 x[46,127,0] + 0 x[46,133,0] + 0 x[46,146,0]
   + 0 x[46,148,0] + 0 x[46,151,0] + 0 x[46,161,0] + 0 x[46,165,0]
   + 0 x[46,167,0] + 0 x[46,190,0] + 0 x[54,40,0] + 0 x[54,51,0]
   + 0 x[54,106,0] + 0 x[54,119,0] + 0 x[54,123,0] + 0 x[54,139,0]
   + 0 x[55,46,0] + 0 x[55,82,0] + 0 x[55,84,0] + 0 x[55,151,0]
   + 0 x[55,161,0] + 0 x[55,184,0] + 0 x[55,197,0] + 0 x[58,10,0]
   + 0 x[58,20,0] + 0 x[58,48,0] + 0 x[58,53,0] + 0 x[58,58,0]
   + 0 x[58,69,0] + 0 x[58,83,0] + 0 x[58,88,0] + 0 x[58,98,0]
   + 0 x[58,102,0] + 0 x[58,103,0] + 0 x[58,104,0] + 0 x[58,117,0]
   + 0 x[58,118,0] + 0 x[58,124,0] + 0 x[58,125,0] + 0 x[58,129,0]
   + 0 x[58,135,0] + 0 x[58,138,0] + 0 x[58,191,0] + 0 x[60,1,0]
   + 0 x[60,20,0] + 0 x[60,30,0] + 0 x[60,42,0] + 0 x[60,47,0]
   + 0 x[60,69,0] + 0 x[60,87,0] + 0 x[60,101,0] + 0 x[60,103,0]
   + 0 x[60,104,0] + 0 x[60,108,0] + 0 x[60,109,0] + 0 x[60,111,0]
   + 0 x[60,122,0] + 0 x[60,130,0] + 0 x[60,145,0] + 0 x[60,157,0]
   + 0 x[60,159,0] + 0 x[60,162,0] + 0 x[60,183,0] + 0 x[60,187,0]
   + 0 x[61,89,0] + 0 x[61,99,0] + 0 x[61,152,0] + 0 x[62,8,0]
   + 0 x[62,168,0] + 0 x[62,178,0] + 0 x[63,30,0] + 0 x[63,46,0]
   + 0 x[63,47,0] + 0 x[63,48,0] + 0 x[63,84,0] + 0 x[63,90,0]
   + 0 x[63,96,0] + 0 x[63,129,0] + 0 x[63,138,0] + 0 x[63,151,0]
   + 0 x[63,158,0] + 0 x[63,159,0] + 0 x[63,190,0] + 0 x[64,30,0]
   + 0 x[64,46,0] + 0 x[64,47,0] + 0 x[64,82,0] + 0 x[64,84,0]
   + 0 x[64,87,0] + 0 x[64,90,0] + 0 x[64,96,0] + 0 x[64,151,0]
   + 0 x[64,158,0] + 0 x[64,159,0] + 0 x[64,161,0] + 0 x[64,184,0]
   + 0 x[64,190,0] + 0 x[64,197,0] + 0 x[67,24,0] + 0 x[67,33,0]
   + 0 x[67,44,0] + 0 x[67,45,0] + 0 x[67,46,0] + 0 x[67,49,0]
   + 0 x[67,58,0] + 0 x[67,59,0] + 0 x[67,71,0] + 0 x[67,76,0]
   + 0 x[67,83,0] + 0 x[67,84,0] + 0 x[67,88,0] + 0 x[67,90,0]
   + 0 x[67,93,0] + 0 x[67,96,0] + 0 x[67,98,0] + 0 x[67,102,0]
   + 0 x[67,115,0] + 0 x[67,117,0] + 0 x[67,126,0] + 0 x[67,128,0]
   + 0 x[67,133,0] + 0 x[67,135,0] + 0 x[67,151,0] + 0 x[67,158,0]
   + 0 x[67,165,0] + 0 x[67,190,0] + 0 x[67,192,0] + 0 x[68,23,0]
   + 0 x[68,28,0] + 0 x[68,34,0] + 0 x[68,113,0] + 0 x[68,150,0]
   + 0 x[68,170,0] + 0 x[68,195,0] + 0 x[71,128,0] + 0 x[73,25,0]
   + 0 x[73,57,0] + 0 x[73,66,0] + 0 x[73,73,0] + 0 x[76,49,0]
   + 0 x[76,60,0] + 0 x[76,79,0] + 0 x[76,146,0] + 0 x[81,60,0]
   + 0 x[81,82,0] + 0 x[81,84,0] + 0 x[81,146,0] + 0 x[81,151,0]
   + 0 x[81,161,0] + 0 x[81,184,0] + 0 x[82,38,0] + 0 x[82,44,0]
   + 0 x[82,60,0] + 0 x[82,82,0] + 0 x[82,100,0] + 0 x[82,146,0]
   + 0 x[82,148,0] + 0 x[82,151,0] + 0 x[82,161,0] + 0 x[82,165,0]
   + 0 x[84,30,0] + 0 x[84,47,0] + 0 x[84,87,0] + 0 x[84,96,0]
   + 0 x[84,101,0] + 0 x[84,109,0] + 0 x[84,111,0] + 0 x[84,130,0]
   + 0 x[84,158,0] + 0 x[84,159,0] + 0 x[84,183,0] + 0 x[84,187,0]
   + 0 x[84,197,0] + 0 x[85,26,0] + 0 x[85,110,0] + 0 x[85,121,0]
   + 0 x[85,137,0] + 0 x[87,60,0] + 0 x[87,82,0] + 0 x[87,146,0]
   + 0 x[87,151,0] + 0 x[87,161,0] + 0 x[89,50,0] + 0 x[89,65,0]
   + 0 x[89,141,0] + 0 x[89,152,0] + 0 x[89,154,0] + 0 x[89,156,0]
   + 0 x[89,181,0] + 0 x[89,196,0] + 0 x[91,23,0] + 0 x[91,28,0]
   + 0 x[91,113,0] + 0 x[91,195,0] + 0 x[91,199,0] + 0 x[92,85,0]
   + 0 x[93,1,0] + 0 x[93,20,0] + 0 x[93,24,0] + 0 x[93,30,0]
   + 0 x[93,47,0] + 0 x[93,48,0] + 0 x[93,58,0] + 0 x[93,69,0]
   + 0 x[93,76,0] + 0 x[93,83,0] + 0 x[93,88,0] + 0 x[93,90,0]
   + 0 x[93,96,0] + 0 x[93,98,0] + 0 x[93,102,0] + 0 x[93,103,0]
   + 0 x[93,104,0] + 0 x[93,117,0] + 0 x[93,122,0] + 0 x[93,124,0]
   + 0 x[93,129,0] + 0 x[93,135,0] + 0 x[93,138,0] + 0 x[93,145,0]
   + 0 x[93,158,0] + 0 x[93,159,0] + 0 x[94,30,0] + 0 x[94,47,0]
   + 0 x[94,48,0] + 0 x[94,101,0] + 0 x[94,111,0] + 0 x[94,129,0]
   + 0 x[94,138,0] + 0 x[94,159,0] + 0 x[94,183,0] + 0 x[94,187,0]
   + 0 x[95,89,0] + 0 x[95,99,0] + 0 x[97,9,0] + 0 x[97,11,0]
   + 0 x[97,15,0] + 0 x[98,49,0] + 0 x[98,90,0] + 0 x[98,158,0]
   + 0 x[98,190,0] + 0 x[99,152,0] + 0 x[100,128,0] + 0 x[102,33,0]
   + 0 x[102,35,0] + 0 x[102,133,0] + 0 x[103,4,0] + 0 x[103,33,0]
   + 0 x[103,44,0] + 0 x[103,45,0] + 0 x[103,49,0] + 0 x[103,58,0]
   + 0 x[103,59,0] + 0 x[103,60,0] + 0 x[103,71,0] + 0 x[103,79,0]
   + 0 x[103,84,0] + 0 x[103,93,0] + 0 x[103,94,0] + 0 x[103,98,0]
   + 0 x[103,115,0] + 0 x[103,126,0] + 0 x[103,127,0] + 0 x[103,133,0]
   + 0 x[103,146,0] + 0 x[103,151,0] + 0 x[103,165,0] + 0 x[103,167,0]
   + 0 x[103,169,0] + 0 x[103,190,0] + 0 x[103,192,0] + 0 x[104,1,0]
   + 0 x[104,20,0] + 0 x[104,24,0] + 0 x[104,30,0] + 0 x[104,42,0]
   + 0 x[104,46,0] + 0 x[104,47,0] + 0 x[104,48,0] + 0 x[104,58,0]
   + 0 x[104,69,0] + 0 x[104,76,0] + 0 x[104,83,0] + 0 x[104,84,0]
   + 0 x[104,88,0] + 0 x[104,90,0] + 0 x[104,96,0] + 0 x[104,98,0]
   + 0 x[104,102,0] + 0 x[104,103,0] + 0 x[104,104,0] + 0 x[104,111,0]
   + 0 x[104,117,0] + 0 x[104,122,0] + 0 x[104,124,0] + 0 x[104,128,0]
   + 0 x[104,129,0] + 0 x[104,135,0] + 0 x[104,138,0] + 0 x[104,145,0]
   + 0 x[104,151,0] + 0 x[104,158,0] + 0 x[104,159,0] + 0 x[105,30,0]
   + 0 x[105,46,0] + 0 x[105,47,0] + 0 x[105,84,0] + 0 x[105,87,0]
   + 0 x[105,90,0] + 0 x[105,96,0] + 0 x[105,151,0] + 0 x[105,158,0]
   + 0 x[105,159,0] + 0 x[105,161,0] + 0 x[105,184,0] + 0 x[105,190,0]
   + 0 x[105,197,0] + 0 x[106,51,0] + 0 x[106,123,0] + 0 x[106,139,0]
   + 0 x[108,42,0] + 0 x[108,46,0] + 0 x[108,81,0] + 0 x[108,84,0]
   + 0 x[108,87,0] + 0 x[108,100,0] + 0 x[108,108,0] + 0 x[108,111,0]
   + 0 x[108,128,0] + 0 x[108,130,0] + 0 x[108,151,0] + 0 x[108,157,0]
   + 0 x[108,171,0] + 0 x[108,184,0] + 0 x[108,197,0] + 0 x[110,16,0]
   + 0 x[110,18,0] + 0 x[110,19,0] + 0 x[110,21,0] + 0 x[110,85,0]
   + 0 x[110,200,0] + 0 x[111,30,0] + 0 x[111,46,0] + 0 x[111,47,0]
   + 0 x[111,82,0] + 0 x[111,84,0] + 0 x[111,87,0] + 0 x[111,90,0]
   + 0 x[111,96,0] + 0 x[111,151,0] + 0 x[111,158,0] + 0 x[111,159,0]
   + 0 x[111,161,0] + 0 x[111,184,0] + 0 x[111,190,0] + 0 x[111,197,0]
   + 0 x[113,23,0] + 0 x[113,32,0] + 0 x[113,147,0] + 0 x[113,199,0]
   + 0 x[114,5,0] + 0 x[114,54,0] + 0 x[114,114,0] + 0 x[114,143,0]
   + 0 x[114,144,0] + 0 x[115,30,0] + 0 x[115,47,0] + 0 x[115,48,0]
   + 0 x[115,96,0] + 0 x[115,101,0] + 0 x[115,111,0] + 0 x[115,129,0]
   + 0 x[115,138,0] + 0 x[115,159,0] + 0 x[115,183,0] + 0 x[115,187,0]
   + 0 x[116,57,0] + 0 x[116,116,0] + 0 x[116,134,0] + 0 x[116,142,0]
   + 0 x[117,24,0] + 0 x[117,33,0] + 0 x[117,45,0] + 0 x[117,49,0]
   + 0 x[117,58,0] + 0 x[117,59,0] + 0 x[117,71,0] + 0 x[117,76,0]
   + 0 x[117,83,0] + 0 x[117,88,0] + 0 x[117,90,0] + 0 x[117,93,0]
   + 0 x[117,96,0] + 0 x[117,98,0] + 0 x[117,102,0] + 0 x[117,115,0]
   + 0 x[117,117,0] + 0 x[117,126,0] + 0 x[117,133,0] + 0 x[117,135,0]
   + 0 x[117,158,0] + 0 x[117,190,0] + 0 x[117,192,0] + 0 x[119,5,0]
   + 0 x[119,54,0] + 0 x[119,114,0] + 0 x[119,143,0] + 0 x[119,144,0]
   + 0 x[120,6,0] + 0 x[120,120,0] + 0 x[120,174,0] + 0 x[120,198,0]
   + 0 x[121,2,0] + 0 x[121,39,0] + 0 x[121,92,0] + 0 x[121,132,0]
   + 0 x[121,182,0] + 0 x[122,1,0] + 0 x[122,20,0] + 0 x[122,24,0]
   + 0 x[122,30,0] + 0 x[122,42,0] + 0 x[122,46,0] + 0 x[122,47,0]
   + 0 x[122,48,0] + 0 x[122,69,0] + 0 x[122,76,0] + 0 x[122,83,0]
   + 0 x[122,84,0] + 0 x[122,90,0] + 0 x[122,96,0] + 0 x[122,98,0]
   + 0 x[122,103,0] + 0 x[122,104,0] + 0 x[122,111,0] + 0 x[122,117,0]
   + 0 x[122,122,0] + 0 x[122,124,0] + 0 x[122,128,0] + 0 x[122,129,0]
   + 0 x[122,138,0] + 0 x[122,145,0] + 0 x[122,151,0] + 0 x[122,158,0]
   + 0 x[122,159,0] + 0 x[123,51,0] + 0 x[123,106,0] + 0 x[123,119,0]
   + 0 x[123,123,0] + 0 x[123,139,0] + 0 x[131,30,0] + 0 x[131,46,0]
   + 0 x[131,47,0] + 0 x[131,48,0] + 0 x[131,90,0] + 0 x[131,96,0]
   + 0 x[131,101,0] + 0 x[131,111,0] + 0 x[131,129,0] + 0 x[131,138,0]
   + 0 x[131,158,0] + 0 x[131,159,0] + 0 x[131,183,0] + 0 x[131,187,0]
   + 0 x[132,26,0] + 0 x[132,110,0] + 0 x[132,121,0] + 0 x[132,137,0]
   + 0 x[133,4,0] + 0 x[133,33,0] + 0 x[133,44,0] + 0 x[133,45,0]
   + 0 x[133,49,0] + 0 x[133,59,0] + 0 x[133,60,0] + 0 x[133,71,0]
   + 0 x[133,79,0] + 0 x[133,93,0] + 0 x[133,94,0] + 0 x[133,115,0]
   + 0 x[133,126,0] + 0 x[133,127,0] + 0 x[133,133,0] + 0 x[133,146,0]
   + 0 x[133,151,0] + 0 x[133,165,0] + 0 x[133,167,0] + 0 x[133,169,0]
   + 0 x[133,190,0] + 0 x[133,192,0] + 0 x[134,142,0] + 0 x[136,23,0]
   + 0 x[136,28,0] + 0 x[136,34,0] + 0 x[136,52,0] + 0 x[136,91,0]
   + 0 x[136,113,0] + 0 x[136,150,0] + 0 x[136,170,0] + 0 x[136,195,0]
   + 0 x[136,199,0] + 0 x[138,49,0] + 0 x[138,79,0] + 0 x[138,190,0]
   + 0 x[142,57,0] + 0 x[143,51,0] + 0 x[143,123,0] + 0 x[143,144,0]
   + 0 x[144,144,0] + 0 x[145,1,0] + 0 x[145,20,0] + 0 x[145,24,0]
   + 0 x[145,30,0] + 0 x[145,42,0] + 0 x[145,46,0] + 0 x[145,47,0]
   + 0 x[145,48,0] + 0 x[145,69,0] + 0 x[145,76,0] + 0 x[145,83,0]
   + 0 x[145,90,0] + 0 x[145,96,0] + 0 x[145,101,0] + 0 x[145,103,0]
   + 0 x[145,104,0] + 0 x[145,111,0] + 0 x[145,117,0] + 0 x[145,122,0]
   + 0 x[145,124,0] + 0 x[145,128,0] + 0 x[145,129,0] + 0 x[145,138,0]
   + 0 x[145,145,0] + 0 x[145,158,0] + 0 x[145,159,0] + 0 x[145,162,0]
   + 0 x[145,183,0] + 0 x[145,187,0] + 0 x[147,23,0] + 0 x[147,28,0]
   + 0 x[147,34,0] + 0 x[147,113,0] + 0 x[147,150,0] + 0 x[147,170,0]
   + 0 x[147,195,0] + 0 x[148,42,0] + 0 x[148,87,0] + 0 x[148,108,0]
   + 0 x[148,109,0] + 0 x[148,111,0] + 0 x[148,128,0] + 0 x[148,130,0]
   + 0 x[148,157,0] + 0 x[148,197,0] + 0 x[150,195,0] + 0 x[152,112,0]
   + 0 x[152,141,0] + 0 x[152,152,0] + 0 x[152,181,0] + 0 x[153,128,0]
   + 0 x[153,133,0] + 0 x[155,10,0] + 0 x[155,53,0] + 0 x[155,118,0]
   + 0 x[155,191,0] + 0 x[157,42,0] + 0 x[157,87,0] + 0 x[157,108,0]
   + 0 x[157,109,0] + 0 x[157,111,0] + 0 x[157,128,0] + 0 x[157,130,0]
   + 0 x[157,157,0] + 0 x[157,197,0] + 0 x[159,1,0] + 0 x[159,24,0]
   + 0 x[159,30,0] + 0 x[159,44,0] + 0 x[159,46,0] + 0 x[159,47,0]
   + 0 x[159,48,0] + 0 x[159,71,0] + 0 x[159,76,0] + 0 x[159,83,0]
   + 0 x[159,84,0] + 0 x[159,90,0] + 0 x[159,93,0] + 0 x[159,96,0]
   + 0 x[159,98,0] + 0 x[159,104,0] + 0 x[159,117,0] + 0 x[159,124,0]
   + 0 x[159,126,0] + 0 x[159,128,0] + 0 x[159,129,0] + 0 x[159,138,0]
   + 0 x[159,151,0] + 0 x[159,158,0] + 0 x[159,159,0] + 0 x[159,165,0]
   + 0 x[159,190,0] + 0 x[159,192,0] + 0 x[161,42,0] + 0 x[161,46,0]
   + 0 x[161,81,0] + 0 x[161,84,0] + 0 x[161,87,0] + 0 x[161,100,0]
   + 0 x[161,108,0] + 0 x[161,128,0] + 0 x[161,151,0] + 0 x[161,157,0]
   + 0 x[161,161,0] + 0 x[161,171,0] + 0 x[161,184,0] + 0 x[161,197,0]
   + 0 x[162,49,0] + 0 x[162,60,0] + 0 x[162,79,0] + 0 x[162,84,0]
   + 0 x[162,146,0] + 0 x[162,151,0] + 0 x[162,190,0] + 0 x[164,9,0]
   + 0 x[164,10,0] + 0 x[164,15,0] + 0 x[164,53,0] + 0 x[164,118,0]
   + 0 x[167,49,0] + 0 x[167,60,0] + 0 x[167,79,0] + 0 x[167,146,0]
   + 0 x[169,4,0] + 0 x[169,33,0] + 0 x[169,49,0] + 0 x[169,59,0]
   + 0 x[169,79,0] + 0 x[169,94,0] + 0 x[169,115,0] + 0 x[169,127,0]
   + 0 x[169,133,0] + 0 x[169,167,0] + 0 x[169,169,0] + 0 x[171,87,0]
   + 0 x[171,109,0] + 0 x[171,111,0] + 0 x[171,130,0] + 0 x[172,9,0]
   + 0 x[172,11,0] + 0 x[172,15,0] + 0 x[172,33,0] + 0 x[172,35,0]
   + 0 x[172,37,0] + 0 x[172,45,0] + 0 x[172,58,0] + 0 x[172,86,0]
   + 0 x[172,97,0] + 0 x[172,102,0] + 0 x[172,160,0] + 0 x[172,185,0]
   + 0 x[175,19,0] + 0 x[175,21,0] + 0 x[175,26,0] + 0 x[175,121,0]
   + 0 x[175,137,0] + 0 x[176,32,0] + 0 x[176,80,0] + 0 x[176,147,0]
   + 0 x[176,173,0] + 0 x[176,176,0] + 0 x[180,5,0] + 0 x[180,54,0]
   + 0 x[180,114,0] + 0 x[180,143,0] + 0 x[180,144,0] + 0 x[185,10,0]
   + 0 x[185,53,0] + 0 x[185,75,0] + 0 x[185,125,0] + 0 x[185,164,0]
   + 0 x[185,191,0] + 0 x[186,87,0] + 0 x[186,109,0] + 0 x[186,111,0]
   + 0 x[186,130,0] + 0 x[189,57,0] + 0 x[189,116,0] + 0 x[189,134,0]
   + 0 x[191,9,0] + 0 x[191,11,0] + 0 x[191,15,0] + 0 x[191,33,0]
   + 0 x[191,35,0] + 0 x[191,37,0] + 0 x[191,45,0] + 0 x[191,86,0]
   + 0 x[191,97,0] + 0 x[191,160,0] + 0 x[191,185,0] + 0 x[193,30,0]
   + 0 x[193,47,0] + 0 x[193,48,0] + 0 x[193,90,0] + 0 x[193,96,0]
   + 0 x[193,129,0] + 0 x[193,138,0] + 0 x[193,158,0] + 0 x[193,159,0]
   + 0 x[194,70,0] + 0 x[194,72,0] + 0 x[194,177,0] + 0 x[196,65,0]
   + 0 x[196,89,0] + 0 x[196,141,0] + 0 x[196,152,0] + 0 x[196,196,0]
   + 0 x[197,38,0] + 0 x[199,23,0] + 0 x[199,32,0] + 0 x[199,34,0]
   + 0 x[199,52,0] + 0 x[199,80,0] + 0 x[199,91,0] + 0 x[199,147,0]
   + 0 x[199,199,0] + 0 x[200,137,0]
Subject To
Bounds
Binaries
 x[4,30,0] x[4,47,0] x[4,101,0] x[4,138,0] x[4,183,0] x[4,187,0] x[8,8,0]
 x[8,22,0] x[8,27,0] x[8,107,0] x[8,168,0] x[8,178,0] x[8,194,0] x[10,11,0]
 x[10,15,0] x[10,33,0] x[10,35,0] x[10,37,0] x[10,45,0] x[10,86,0]
 x[10,97,0] x[10,160,0] x[10,185,0] x[12,6,0] x[12,120,0] x[12,174,0]
 x[12,198,0] x[13,134,0] x[14,53,0] x[14,75,0] x[14,125,0] x[14,164,0]
 x[14,191,0] x[16,137,0] x[19,2,0] x[19,182,0] x[20,4,0] x[20,33,0]
 x[20,44,0] x[20,45,0] x[20,49,0] x[20,59,0] x[20,60,0] x[20,71,0]
 x[20,79,0] x[20,93,0] x[20,94,0] x[20,115,0] x[20,126,0] x[20,127,0]
 x[20,133,0] x[20,146,0] x[20,165,0] x[20,167,0] x[20,169,0] x[20,190,0]
 x[20,192,0] x[21,2,0] x[21,182,0] x[29,29,0] x[29,65,0] x[29,89,0]
 x[29,99,0] x[29,152,0] x[29,196,0] x[30,133,0] x[31,1,0] x[31,20,0]
 x[31,24,0] x[31,30,0] x[31,42,0] x[31,46,0] x[31,47,0] x[31,48,0]
 x[31,69,0] x[31,76,0] x[31,83,0] x[31,96,0] x[31,101,0] x[31,103,0]
 x[31,104,0] x[31,111,0] x[31,122,0] x[31,124,0] x[31,128,0] x[31,129,0]
 x[31,138,0] x[31,145,0] x[31,158,0] x[31,159,0] x[31,162,0] x[31,183,0]
 x[31,187,0] x[32,32,0] x[32,80,0] x[32,147,0] x[32,173,0] x[32,176,0]
 x[33,10,0] x[33,48,0] x[33,53,0] x[33,118,0] x[33,129,0] x[33,138,0]
 x[33,191,0] x[34,23,0] x[34,28,0] x[34,34,0] x[34,113,0] x[34,150,0]
 x[34,170,0] x[34,195,0] x[35,9,0] x[35,10,0] x[35,53,0] x[35,58,0]
 x[35,88,0] x[35,102,0] x[35,118,0] x[35,125,0] x[35,135,0] x[35,140,0]
 x[35,149,0] x[36,49,0] x[36,60,0] x[36,79,0] x[36,146,0] x[36,190,0]
 x[40,40,0] x[40,54,0] x[40,56,0] x[40,106,0] x[40,119,0] x[40,123,0]
 x[40,143,0] x[40,144,0] x[40,180,0] x[40,188,0] x[41,8,0] x[41,22,0]
 x[41,27,0] x[41,107,0] x[41,168,0] x[41,178,0] x[41,194,0] x[42,46,0]
 x[42,49,0] x[42,82,0] x[42,84,0] x[42,90,0] x[42,96,0] x[42,151,0]
 x[42,158,0] x[42,161,0] x[42,184,0] x[42,190,0] x[42,197,0] x[45,49,0]
 x[45,118,0] x[45,190,0] x[46,38,0] x[46,44,0] x[46,49,0] x[46,60,0]
 x[46,71,0] x[46,79,0] x[46,82,0] x[46,94,0] x[46,100,0] x[46,115,0]
 x[46,126,0] x[46,127,0] x[46,133,0] x[46,146,0] x[46,148,0] x[46,151,0]
 x[46,161,0] x[46,165,0] x[46,167,0] x[46,190,0] x[54,40,0] x[54,51,0]
 x[54,106,0] x[54,119,0] x[54,123,0] x[54,139,0] x[55,46,0] x[55,82,0]
 x[55,84,0] x[55,151,0] x[55,161,0] x[55,184,0] x[55,197,0] x[58,10,0]
 x[58,20,0] x[58,48,0] x[58,53,0] x[58,58,0] x[58,69,0] x[58,83,0]
 x[58,88,0] x[58,98,0] x[58,102,0] x[58,103,0] x[58,104,0] x[58,117,0]
 x[58,118,0] x[58,124,0] x[58,125,0] x[58,129,0] x[58,135,0] x[58,138,0]
 x[58,191,0] x[60,1,0] x[60,20,0] x[60,30,0] x[60,42,0] x[60,47,0]
 x[60,69,0] x[60,87,0] x[60,101,0] x[60,103,0] x[60,104,0] x[60,108,0]
 x[60,109,0] x[60,111,0] x[60,122,0] x[60,130,0] x[60,145,0] x[60,157,0]
 x[60,159,0] x[60,162,0] x[60,183,0] x[60,187,0] x[61,89,0] x[61,99,0]
 x[61,152,0] x[62,8,0] x[62,168,0] x[62,178,0] x[63,30,0] x[63,46,0]
 x[63,47,0] x[63,48,0] x[63,84,0] x[63,90,0] x[63,96,0] x[63,129,0]
 x[63,138,0] x[63,151,0] x[63,158,0] x[63,159,0] x[63,190,0] x[64,30,0]
 x[64,46,0] x[64,47,0] x[64,82,0] x[64,84,0] x[64,87,0] x[64,90,0]
 x[64,96,0] x[64,151,0] x[64,158,0] x[64,159,0] x[64,161,0] x[64,184,0]
 x[64,190,0] x[64,197,0] x[67,24,0] x[67,33,0] x[67,44,0] x[67,45,0]
 x[67,46,0] x[67,49,0] x[67,58,0] x[67,59,0] x[67,71,0] x[67,76,0]
 x[67,83,0] x[67,84,0] x[67,88,0] x[67,90,0] x[67,93,0] x[67,96,0]
 x[67,98,0] x[67,102,0] x[67,115,0] x[67,117,0] x[67,126,0] x[67,128,0]
 x[67,133,0] x[67,135,0] x[67,151,0] x[67,158,0] x[67,165,0] x[67,190,0]
 x[67,192,0] x[68,23,0] x[68,28,0] x[68,34,0] x[68,113,0] x[68,150,0]
 x[68,170,0] x[68,195,0] x[71,128,0] x[73,25,0] x[73,57,0] x[73,66,0]
 x[73,73,0] x[76,49,0] x[76,60,0] x[76,79,0] x[76,146,0] x[81,60,0]
 x[81,82,0] x[81,84,0] x[81,146,0] x[81,151,0] x[81,161,0] x[81,184,0]
 x[82,38,0] x[82,44,0] x[82,60,0] x[82,82,0] x[82,100,0] x[82,146,0]
 x[82,148,0] x[82,151,0] x[82,161,0] x[82,165,0] x[84,30,0] x[84,47,0]
 x[84,87,0] x[84,96,0] x[84,101,0] x[84,109,0] x[84,111,0] x[84,130,0]
 x[84,158,0] x[84,159,0] x[84,183,0] x[84,187,0] x[84,197,0] x[85,26,0]
 x[85,110,0] x[85,121,0] x[85,137,0] x[87,60,0] x[87,82,0] x[87,146,0]
 x[87,151,0] x[87,161,0] x[89,50,0] x[89,65,0] x[89,141,0] x[89,152,0]
 x[89,154,0] x[89,156,0] x[89,181,0] x[89,196,0] x[91,23,0] x[91,28,0]
 x[91,113,0] x[91,195,0] x[91,199,0] x[92,85,0] x[93,1,0] x[93,20,0]
 x[93,24,0] x[93,30,0] x[93,47,0] x[93,48,0] x[93,58,0] x[93,69,0]
 x[93,76,0] x[93,83,0] x[93,88,0] x[93,90,0] x[93,96,0] x[93,98,0]
 x[93,102,0] x[93,103,0] x[93,104,0] x[93,117,0] x[93,122,0] x[93,124,0]
 x[93,129,0] x[93,135,0] x[93,138,0] x[93,145,0] x[93,158,0] x[93,159,0]
 x[94,30,0] x[94,47,0] x[94,48,0] x[94,101,0] x[94,111,0] x[94,129,0]
 x[94,138,0] x[94,159,0] x[94,183,0] x[94,187,0] x[95,89,0] x[95,99,0]
 x[97,9,0] x[97,11,0] x[97,15,0] x[98,49,0] x[98,90,0] x[98,158,0]
 x[98,190,0] x[99,152,0] x[100,128,0] x[102,33,0] x[102,35,0] x[102,133,0]
 x[103,4,0] x[103,33,0] x[103,44,0] x[103,45,0] x[103,49,0] x[103,58,0]
 x[103,59,0] x[103,60,0] x[103,71,0] x[103,79,0] x[103,84,0] x[103,93,0]
 x[103,94,0] x[103,98,0] x[103,115,0] x[103,126,0] x[103,127,0]
 x[103,133,0] x[103,146,0] x[103,151,0] x[103,165,0] x[103,167,0]
 x[103,169,0] x[103,190,0] x[103,192,0] x[104,1,0] x[104,20,0] x[104,24,0]
 x[104,30,0] x[104,42,0] x[104,46,0] x[104,47,0] x[104,48,0] x[104,58,0]
 x[104,69,0] x[104,76,0] x[104,83,0] x[104,84,0] x[104,88,0] x[104,90,0]
 x[104,96,0] x[104,98,0] x[104,102,0] x[104,103,0] x[104,104,0]
 x[104,111,0] x[104,117,0] x[104,122,0] x[104,124,0] x[104,128,0]
 x[104,129,0] x[104,135,0] x[104,138,0] x[104,145,0] x[104,151,0]
 x[104,158,0] x[104,159,0] x[105,30,0] x[105,46,0] x[105,47,0] x[105,84,0]
 x[105,87,0] x[105,90,0] x[105,96,0] x[105,151,0] x[105,158,0] x[105,159,0]
 x[105,161,0] x[105,184,0] x[105,190,0] x[105,197,0] x[106,51,0]
 x[106,123,0] x[106,139,0] x[108,42,0] x[108,46,0] x[108,81,0] x[108,84,0]
 x[108,87,0] x[108,100,0] x[108,108,0] x[108,111,0] x[108,128,0]
 x[108,130,0] x[108,151,0] x[108,157,0] x[108,171,0] x[108,184,0]
 x[108,197,0] x[110,16,0] x[110,18,0] x[110,19,0] x[110,21,0] x[110,85,0]
 x[110,200,0] x[111,30,0] x[111,46,0] x[111,47,0] x[111,82,0] x[111,84,0]
 x[111,87,0] x[111,90,0] x[111,96,0] x[111,151,0] x[111,158,0] x[111,159,0]
 x[111,161,0] x[111,184,0] x[111,190,0] x[111,197,0] x[113,23,0]
 x[113,32,0] x[113,147,0] x[113,199,0] x[114,5,0] x[114,54,0] x[114,114,0]
 x[114,143,0] x[114,144,0] x[115,30,0] x[115,47,0] x[115,48,0] x[115,96,0]
 x[115,101,0] x[115,111,0] x[115,129,0] x[115,138,0] x[115,159,0]
 x[115,183,0] x[115,187,0] x[116,57,0] x[116,116,0] x[116,134,0]
 x[116,142,0] x[117,24,0] x[117,33,0] x[117,45,0] x[117,49,0] x[117,58,0]
 x[117,59,0] x[117,71,0] x[117,76,0] x[117,83,0] x[117,88,0] x[117,90,0]
 x[117,93,0] x[117,96,0] x[117,98,0] x[117,102,0] x[117,115,0] x[117,117,0]
 x[117,126,0] x[117,133,0] x[117,135,0] x[117,158,0] x[117,190,0]
 x[117,192,0] x[119,5,0] x[119,54,0] x[119,114,0] x[119,143,0] x[119,144,0]
 x[120,6,0] x[120,120,0] x[120,174,0] x[120,198,0] x[121,2,0] x[121,39,0]
 x[121,92,0] x[121,132,0] x[121,182,0] x[122,1,0] x[122,20,0] x[122,24,0]
 x[122,30,0] x[122,42,0] x[122,46,0] x[122,47,0] x[122,48,0] x[122,69,0]
 x[122,76,0] x[122,83,0] x[122,84,0] x[122,90,0] x[122,96,0] x[122,98,0]
 x[122,103,0] x[122,104,0] x[122,111,0] x[122,117,0] x[122,122,0]
 x[122,124,0] x[122,128,0] x[122,129,0] x[122,138,0] x[122,145,0]
 x[122,151,0] x[122,158,0] x[122,159,0] x[123,51,0] x[123,106,0]
 x[123,119,0] x[123,123,0] x[123,139,0] x[131,30,0] x[131,46,0] x[131,47,0]
 x[131,48,0] x[131,90,0] x[131,96,0] x[131,101,0] x[131,111,0] x[131,129,0]
 x[131,138,0] x[131,158,0] x[131,159,0] x[131,183,0] x[131,187,0]
 x[132,26,0] x[132,110,0] x[132,121,0] x[132,137,0] x[133,4,0] x[133,33,0]
 x[133,44,0] x[133,45,0] x[133,49,0] x[133,59,0] x[133,60,0] x[133,71,0]
 x[133,79,0] x[133,93,0] x[133,94,0] x[133,115,0] x[133,126,0] x[133,127,0]
 x[133,133,0] x[133,146,0] x[133,151,0] x[133,165,0] x[133,167,0]
 x[133,169,0] x[133,190,0] x[133,192,0] x[134,142,0] x[136,23,0]
 x[136,28,0] x[136,34,0] x[136,52,0] x[136,91,0] x[136,113,0] x[136,150,0]
 x[136,170,0] x[136,195,0] x[136,199,0] x[138,49,0] x[138,79,0]
 x[138,190,0] x[142,57,0] x[143,51,0] x[143,123,0] x[143,144,0]
 x[144,144,0] x[145,1,0] x[145,20,0] x[145,24,0] x[145,30,0] x[145,42,0]
 x[145,46,0] x[145,47,0] x[145,48,0] x[145,69,0] x[145,76,0] x[145,83,0]
 x[145,90,0] x[145,96,0] x[145,101,0] x[145,103,0] x[145,104,0]
 x[145,111,0] x[145,117,0] x[145,122,0] x[145,124,0] x[145,128,0]
 x[145,129,0] x[145,138,0] x[145,145,0] x[145,158,0] x[145,159,0]
 x[145,162,0] x[145,183,0] x[145,187,0] x[147,23,0] x[147,28,0] x[147,34,0]
 x[147,113,0] x[147,150,0] x[147,170,0] x[147,195,0] x[148,42,0]
 x[148,87,0] x[148,108,0] x[148,109,0] x[148,111,0] x[148,128,0]
 x[148,130,0] x[148,157,0] x[148,197,0] x[150,195,0] x[152,112,0]
 x[152,141,0] x[152,152,0] x[152,181,0] x[153,128,0] x[153,133,0]
 x[155,10,0] x[155,53,0] x[155,118,0] x[155,191,0] x[157,42,0] x[157,87,0]
 x[157,108,0] x[157,109,0] x[157,111,0] x[157,128,0] x[157,130,0]
 x[157,157,0] x[157,197,0] x[159,1,0] x[159,24,0] x[159,30,0] x[159,44,0]
 x[159,46,0] x[159,47,0] x[159,48,0] x[159,71,0] x[159,76,0] x[159,83,0]
 x[159,84,0] x[159,90,0] x[159,93,0] x[159,96,0] x[159,98,0] x[159,104,0]
 x[159,117,0] x[159,124,0] x[159,126,0] x[159,128,0] x[159,129,0]
 x[159,138,0] x[159,151,0] x[159,158,0] x[159,159,0] x[159,165,0]
 x[159,190,0] x[159,192,0] x[161,42,0] x[161,46,0] x[161,81,0] x[161,84,0]
 x[161,87,0] x[161,100,0] x[161,108,0] x[161,128,0] x[161,151,0]
 x[161,157,0] x[161,161,0] x[161,171,0] x[161,184,0] x[161,197,0]
 x[162,49,0] x[162,60,0] x[162,79,0] x[162,84,0] x[162,146,0] x[162,151,0]
 x[162,190,0] x[164,9,0] x[164,10,0] x[164,15,0] x[164,53,0] x[164,118,0]
 x[167,49,0] x[167,60,0] x[167,79,0] x[167,146,0] x[169,4,0] x[169,33,0]
 x[169,49,0] x[169,59,0] x[169,79,0] x[169,94,0] x[169,115,0] x[169,127,0]
 x[169,133,0] x[169,167,0] x[169,169,0] x[171,87,0] x[171,109,0]
 x[171,111,0] x[171,130,0] x[172,9,0] x[172,11,0] x[172,15,0] x[172,33,0]
 x[172,35,0] x[172,37,0] x[172,45,0] x[172,58,0] x[172,86,0] x[172,97,0]
 x[172,102,0] x[172,160,0] x[172,185,0] x[175,19,0] x[175,21,0] x[175,26,0]
 x[175,121,0] x[175,137,0] x[176,32,0] x[176,80,0] x[176,147,0]
 x[176,173,0] x[176,176,0] x[180,5,0] x[180,54,0] x[180,114,0] x[180,143,0]
 x[180,144,0] x[185,10,0] x[185,53,0] x[185,75,0] x[185,125,0] x[185,164,0]
 x[185,191,0] x[186,87,0] x[186,109,0] x[186,111,0] x[186,130,0]
 x[189,57,0] x[189,116,0] x[189,134,0] x[191,9,0] x[191,11,0] x[191,15,0]
 x[191,33,0] x[191,35,0] x[191,37,0] x[191,45,0] x[191,86,0] x[191,97,0]
 x[191,160,0] x[191,185,0] x[193,30,0] x[193,47,0] x[193,48,0] x[193,90,0]
 x[193,96,0] x[193,129,0] x[193,138,0] x[193,158,0] x[193,159,0]
 x[194,70,0] x[194,72,0] x[194,177,0] x[196,65,0] x[196,89,0] x[196,141,0]
 x[196,152,0] x[196,196,0] x[197,38,0] x[199,23,0] x[199,32,0] x[199,34,0]
 x[199,52,0] x[199,80,0] x[199,91,0] x[199,147,0] x[199,199,0] x[200,137,0]
End
